Problem:    01bis
Rows:       14
Columns:    5
Non-zeros:  36
Status:     OPTIMAL
Objective:  Radiazione_tumore = 245.5 (MAXimum)

   No.   Row name   St   Activity     Lower bound   Upper bound    Marginal
------ ------------ -- ------------- ------------- ------------- -------------
     1 Radiazione_tumore
                    B          245.5                             
     2 Limite_max_posizione[1]
                    NU           120                         120          0.15 
     3 Limite_max_posizione[2]
                    B              0                         130 
     4 Limite_max_posizione[3]
                    B             90                         100 
     5 Limite_max_posizione[4]
                    NU           150                         150           0.2 
     6 Limite_max_posizione[5]
                    B            140                         150 
     7 Limite_max_totale
                    B            500                         600 
     8 Radiazione_organi[1]
                    NU            55                          55           2.5 
     9 Radiazione_organi[2]
                    B           39.5                          90 
    10 Radiazione_organi[3]
                    B              0                          60 
    11 Radiazione_organi[4]
                    NU            24                          24           2.5 
    12 Radiazione_organi[5]
                    B             44                          70 
    13 Radiazione_organi[6]
                    B           54.5                          55 
    14 Radiazione_organi[7]
                    B           37.5                          95 

   No. Column name  St   Activity     Lower bound   Upper bound    Marginal
------ ------------ -- ------------- ------------- ------------- -------------
     1 x[1]         B            120             0               
     2 x[2]         NL             0             0                        -0.2 
     3 x[3]         B             90             0               
     4 x[4]         B            150             0               
     5 x[5]         B            140             0               

Karush-Kuhn-Tucker optimality conditions:

KKT.PE: max.abs.err = 0.00e+000 on row 0
        max.rel.err = 0.00e+000 on row 0
        High quality

KKT.PB: max.abs.err = 0.00e+000 on row 0
        max.rel.err = 0.00e+000 on row 0
        High quality

KKT.DE: max.abs.err = 5.55e-017 on column 5
        max.rel.err = 2.78e-017 on column 5
        High quality

KKT.DB: max.abs.err = 0.00e+000 on row 0
        max.rel.err = 0.00e+000 on row 0
        High quality

End of output
